64
Properties=species:S:1:pos:R:3:neighbors:I:1:forces:R:3 energy=0.00000000 step=0 pos_unit=Angstrom force_unit=kJ/mol/nm pbc="F F F"
C 0.000000 0.000000 0.000000 18 0.000000 0.000000 0.000000
C 0.000000 0.000000 3.000000 18 0.000000 0.000000 0.000000
C 0.000000 0.000000 6.000000 18 0.000000 0.000000 0.000000
C 0.000000 0.000000 9.000000 18 0.000000 0.000000 0.000000
C 0.000000 3.000000 0.000000 18 0.000000 0.000000 0.000000
C 0.000000 3.000000 3.000000 18 0.000000 0.000000 0.000000
C 0.000000 3.000000 6.000000 18 0.000000 0.000000 0.000000
C 0.000000 3.000000 9.000000 18 0.000000 0.000000 0.000000
C 0.000000 6.000000 0.000000 18 0.000000 0.000000 0.000000
C 0.000000 6.000000 3.000000 18 0.000000 0.000000 0.000000
C 0.000000 6.000000 6.000000 18 0.000000 0.000000 0.000000
C 0.000000 6.000000 9.000000 18 0.000000 0.000000 0.000000
C 0.000000 9.000000 0.000000 18 0.000000 0.000000 0.000000
C 0.000000 9.000000 3.000000 18 0.000000 0.000000 0.000000
C 0.000000 9.000000 6.000000 18 0.000000 0.000000 0.000000
C 0.000000 9.000000 9.000000 18 0.000000 0.000000 0.000000
C 3.000000 0.000000 0.000000 18 0.000000 0.000000 0.000000
C 3.000000 0.000000 3.000000 18 0.000000 0.000000 0.000000
C 3.000000 0.000000 6.000000 18 0.000000 0.000000 0.000000
C 3.000000 0.000000 9.000000 18 0.000000 0.000000 0.000000
C 3.000000 3.000000 0.000000 18 0.000000 0.000000 0.000000
C 3.000000 3.000000 3.000000 18 0.000000 0.000000 0.000000
C 3.000000 3.000000 6.000000 18 0.000000 0.000000 0.000000
C 3.000000 3.000000 9.000000 18 0.000000 0.000000 0.000000
C 3.000000 6.000000 0.000000 18 0.000000 0.000000 0.000000
C 3.000000 6.000000 3.000000 18 0.000000 0.000000 0.000000
C 3.000000 6.000000 6.000000 18 0.000000 0.000000 0.000000
C 3.000000 6.000000 9.000000 18 0.000000 0.000000 0.000000
C 3.000000 9.000000 0.000000 18 0.000000 0.000000 0.000000
C 3.000000 9.000000 3.000000 18 0.000000 0.000000 0.000000
C 3.000000 9.000000 6.000000 18 0.000000 0.000000 0.000000
C 3.000000 9.000000 9.000000 18 0.000000 0.000000 0.000000
C 6.000000 0.000000 0.000000 18 0.000000 0.000000 0.000000
C 6.000000 0.000000 3.000000 18 0.000000 0.000000 0.000000
C 6.000000 0.000000 6.000000 18 0.000000 0.000000 0.000000
C 6.000000 0.000000 9.000000 18 0.000000 0.000000 0.000000
C 6.000000 3.000000 0.000000 18 0.000000 0.000000 0.000000
C 6.000000 3.000000 3.000000 18 0.000000 0.000000 0.000000
C 6.000000 3.000000 6.000000 18 0.000000 0.000000 0.000000
C 6.000000 3.000000 9.000000 18 0.000000 0.000000 0.000000
C 6.000000 6.000000 0.000000 18 0.000000 0.000000 0.000000
C 6.000000 6.000000 3.000000 18 0.000000 0.000000 0.000000
C 6.000000 6.000000 6.000000 18 0.000000 0.000000 0.000000
C 6.000000 6.000000 9.000000 18 0.000000 0.000000 0.000000
C 6.000000 9.000000 0.000000 18 0.000000 0.000000 0.000000
C 6.000000 9.000000 3.000000 18 0.000000 0.000000 0.000000
C 6.000000 9.000000 6.000000 18 0.000000 0.000000 0.000000
C 6.000000 9.000000 9.000000 18 0.000000 0.000000 0.000000
C 9.000000 0.000000 0.000000 18 0.000000 0.000000 0.000000
C 9.000000 0.000000 3.000000 18 0.000000 0.000000 0.000000
C 9.000000 0.000000 6.000000 18 0.000000 0.000000 0.000000
C 9.000000 0.000000 9.000000 18 0.000000 0.000000 0.000000
C 9.000000 3.000000 0.000000 18 0.000000 0.000000 0.000000
C 9.000000 3.000000 3.000000 18 0.000000 0.000000 0.000000
C 9.000000 3.000000 6.000000 18 0.000000 0.000000 0.000000
C 9.000000 3.000000 9.000000 18 0.000000 0.000000 0.000000
C 9.000000 6.000000 0.000000 18 0.000000 0.000000 0.000000
C 9.000000 6.000000 3.000000 18 0.000000 0.000000 0.000000
C 9.000000 6.000000 6.000000 18 0.000000 0.000000 0.000000
C 9.000000 6.000000 9.000000 18 0.000000 0.000000 0.000000
C 9.000000 9.000000 0.000000 18 0.000000 0.000000 0.000000
C 9.000000 9.000000 3.000000 18 0.000000 0.000000 0.000000
C 9.000000 9.000000 6.000000 18 0.000000 0.000000 0.000000
C 9.000000 9.000000 9.000000 18 0.000000 0.000000 0.000000
