46
Properties=species:S:1:pos:R:3:subsystem:I:1:forces:R:3 energy=22.02297840 step=0 pos_unit=Angstrom force_unit=kJ/mol/nm pbc="F F F"
C 23.890000 23.910000 10.330000 0 0.000000 0.000000 0.000000
H 23.540000 24.630000 9.600000 0 0.000000 0.000000 0.000000
H 24.400000 24.500000 11.090000 0 0.000000 0.000000 0.000000
H 24.600000 23.250000 9.820000 0 0.000000 0.000000 0.000000
C 22.720000 23.190000 10.950000 0 0.000000 0.000000 0.000000
O 22.210000 23.570000 11.990000 0 0.000000 0.000000 0.000000
N 22.190000 22.180000 10.260000 1 0.000000 0.000000 0.000000
H 22.660000 21.920000 9.410000 1 0.000000 0.000000 0.000000
C 20.960000 21.540000 10.560000 1 0.000000 0.000000 0.000000
H 21.050000 21.060000 11.530000 1 0.000000 0.000000 0.000000
C 19.680000 22.440000 10.450000 1 0.000000 0.000000 0.000000
H 19.500000 22.760000 9.420000 1 0.000000 0.000000 0.000000
H 18.820000 21.890000 10.840000 1 0.000000 0.000000 0.000000
H 19.840000 23.330000 11.060000 1 0.000000 0.000000 0.000000
C 20.760000 20.460000 9.480000 1 0.000000 0.000000 0.000000
O 21.300000 20.520000 8.360000 1 0.000000 0.000000 0.000000
N 19.920000 19.500000 9.860000 0 0.000000 0.000000 0.000000
H 19.620000 19.550000 10.820000 0 0.000000 0.000000 0.000000
C 19.640000 18.340000 9.020000 0 0.000000 0.000000 0.000000
H 19.570000 18.670000 7.990000 0 0.000000 0.000000 0.000000
H 20.500000 17.680000 9.110000 0 0.000000 0.000000 0.000000
H 18.760000 17.820000 9.390000 0 0.000000 0.000000 0.000000
O 29.682452 21.486818 13.034063 0 0.000000 0.000000 0.000000
H 30.235442 20.729868 13.227609 0 0.000000 0.000000 0.000000
H 30.235442 22.243769 13.227609 0 0.000000 0.000000 0.000000
O 27.194405 27.493496 7.087755 0 0.000000 0.000000 0.000000
H 28.120673 27.349274 6.894209 0 0.000000 0.000000 0.000000
H 27.050183 28.419764 6.894209 0 0.000000 0.000000 0.000000
O 21.187727 29.981543 13.034063 0 0.000000 0.000000 0.000000
H 21.944678 30.534533 13.227609 0 0.000000 0.000000 0.000000
H 20.430777 30.534533 13.227609 0 0.000000 0.000000 0.000000
O 15.181049 27.493496 7.087755 0 0.000000 0.000000 0.000000
H 15.325271 28.419764 6.894209 0 0.000000 0.000000 0.000000
H 14.254782 27.349274 6.894209 0 0.000000 0.000000 0.000000
O 12.693002 21.486818 13.034063 0 0.000000 0.000000 0.000000
H 12.140012 22.243769 13.227609 0 0.000000 0.000000 0.000000
H 12.140012 20.729868 13.227609 0 0.000000 0.000000 0.000000
O 15.181049 15.480140 7.087755 0 0.000000 0.000000 0.000000
H 14.254782 15.624362 6.894209 0 0.000000 0.000000 0.000000
H 15.325271 14.553873 6.894209 0 0.000000 0.000000 0.000000
O 21.187727 12.992093 13.034063 0 0.000000 0.000000 0.000000
H 20.430777 12.439103 13.227609 0 0.000000 0.000000 0.000000
H 21.944678 12.439103 13.227609 0 0.000000 0.000000 0.000000
O 27.194405 15.480140 7.087755 0 0.000000 0.000000 0.000000
H 27.050183 14.553873 6.894209 0 0.000000 0.000000 0.000000
H 28.120673 15.624362 6.894209 0 0.000000 0.000000 0.000000
46
Properties=species:S:1:pos:R:3:subsystem:I:1:forces:R:3 energy=22.02306285 step=5 pos_unit=Angstrom force_unit=kJ/mol/nm pbc="F F F"
C 23.890386 23.911699 10.331297 0 -4.825111 4.148161 -3.786581
H 23.531379 24.635975 9.603559 0 2.817080 -5.683301 5.710470
H 24.396294 24.503901 11.093023 0 -0.457568 -0.535616 -0.688941
H 24.601632 23.250353 9.824195 0 -0.357251 0.332187 0.254712
C 22.718374 23.189867 10.949786 0 3.534663 1.995953 -1.950979
O 22.210709 23.570234 11.990212 0 -0.414021 0.310205 0.848509
N 22.188393 22.179726 10.260701 1 -30.690276 -0.832898 29.904089
H 22.657997 21.928467 9.417106 1 14.746755 -7.890170 -26.490999
C 20.954704 21.536655 10.560358 1 37.506855 -0.527304 2.048478
H 21.047032 21.061540 11.532081 1 0.140386 -0.722419 1.477520
C 19.683676 22.438096 10.449982 1 -55.674309 -35.171608 13.072820
H 19.512858 22.764331 9.424915 1 -2.681410 5.121051 -16.090926
H 18.816495 21.879620 10.841735 1 33.165652 21.359143 -14.982712
H 19.840450 23.322325 11.056321 1 4.182583 23.590376 16.176533
C 20.759610 20.458412 9.480499 1 4.015674 -1.171854 -9.973365
O 21.299897 20.520227 8.359867 1 -1.356300 -0.155177 2.813157
N 19.920766 19.501704 9.861235 0 -3.494668 -7.559642 -3.588557
H 19.614487 19.554869 10.817468 0 -0.934494 0.162212 2.917582
C 19.641377 18.338176 9.022385 0 -12.087635 5.320718 0.896242
H 19.569615 18.662148 7.988673 0 0.241780 -1.091517 3.482751
H 20.500101 17.681914 9.104376 0 6.195437 -4.734741 0.591548
H 18.752642 17.821457 9.387681 0 6.426180 3.736241 -2.641352
O 29.682575 21.488213 13.032088 0 -4.442872 7.674374 -1.550914
H 30.236827 20.737882 13.226385 0 5.074983 -12.804286 1.755606
H 30.229978 22.248777 13.229920 0 -0.632111 5.129913 -0.204693
O 27.195592 27.493108 7.086050 0 -3.572463 -15.298594 4.767082
H 28.119734 27.346564 6.899869 0 15.537544 -10.323853 -1.125070
H 27.051151 28.409501 6.887211 0 -11.965081 25.622447 -3.642011
O 21.188896 29.982809 13.033714 0 5.707599 -2.510386 -0.874830
H 21.944430 30.537563 13.231300 0 10.028207 -0.833756 -0.273361
H 20.436122 30.536355 13.227685 0 -15.735806 3.344142 1.148191
O 15.180376 27.495367 7.084810 0 6.414289 0.326208 1.461285
H 15.324122 28.420144 6.885738 0 -1.365297 -0.755094 -0.137790
H 14.256654 27.345262 6.900428 0 -5.048992 0.428886 -1.323495
O 12.692545 21.488066 13.036710 0 17.850229 -4.207493 -6.009040
H 12.142198 22.238353 13.218573 0 -10.625367 24.016779 3.458891
H 12.151004 20.729291 13.223875 0 -7.224862 -19.809286 2.550149
O 15.181025 15.480000 7.089812 0 -0.656379 -11.103385 -2.879951
H 14.254762 15.624604 6.890304 0 11.929175 -9.881721 0.609586
H 15.328012 14.547436 6.899172 0 -11.272796 20.985106 2.270366
O 21.189927 12.989808 13.030770 0 0.657082 28.016549 -9.933634
H 20.434412 12.455613 13.221873 0 -43.401963 -13.800164 4.991433
H 21.936457 12.443033 13.222901 0 42.744881 -14.216385 4.942200
O 27.193332 15.479749 7.089296 0 -5.745282 2.082604 1.999482
H 27.047312 14.555812 6.893757 0 -7.073629 -9.632736 -0.614156
H 28.115012 15.622490 6.888786 0 12.818911 7.550132 -1.385326
46
Properties=species:S:1:pos:R:3:subsystem:I:1:forces:R:3 energy=22.02326336 step=10 pos_unit=Angstrom force_unit=kJ/mol/nm pbc="F F F"
C 23.890767 23.913401 10.332592 0 -9.746462 8.305944 -7.469542
H 23.522786 24.641893 9.607174 0 5.744839 -11.373048 11.325042
H 24.392584 24.507796 11.096040 0 -0.920839 -1.090721 -1.400935
H 24.603260 23.250709 9.828392 0 -0.726550 0.675767 0.514148
C 22.716750 23.189735 10.949570 0 7.063071 4.000491 -3.881530
O 22.211417 23.570468 11.990424 0 -0.818563 0.616728 1.686025
N 22.186763 22.179452 10.261422 1 -60.666382 -2.421497 58.411764
H 22.656139 21.936857 9.423950 1 28.952495 -14.963988 -51.657755
C 20.949440 21.533310 10.560718 1 74.431710 -1.280548 4.258406
H 21.044066 21.063074 11.534177 1 0.273436 -1.358820 2.812959
C 19.687305 22.436163 10.449976 1 -109.622302 -68.493252 24.865582
H 19.525689 22.768713 9.429672 1 -4.913824 10.110899 -31.021499
H 18.813318 21.869451 10.843321 1 64.806543 42.021976 -29.166755
H 19.840941 23.314884 11.052802 1 8.070729 46.160554 31.667427
C 20.759223 20.456823 9.480990 1 8.067780 -2.287029 -19.862798
O 21.299793 20.520454 8.359736 1 -2.697974 -0.317582 5.596149
N 19.921529 19.503403 9.862468 0 -6.991177 -15.109360 -6.964333
H 19.608965 19.559739 10.814964 0 -1.852011 0.333803 5.643745
C 19.642744 18.336357 9.024770 0 -24.064585 10.485361 1.794540
H 19.569232 18.654286 7.987380 0 0.495638 -2.143548 6.994314
H 20.500262 17.683781 9.098759 0 12.182202 -9.270725 1.051112
H 18.745347 17.822952 9.385337 0 12.932228 7.398595 -5.196065
O 29.682695 21.489612 13.030112 0 -8.660403 15.194491 -3.012038
H 30.238263 20.745769 13.225177 0 10.074455 -24.855227 3.446573
H 30.224506 22.253837 13.232228 0 -1.414052 9.660736 -0.434535
O 27.196777 27.492710 7.084348 0 -6.768796 -29.914242 9.464587
H 28.118949 27.343752 6.905519 0 29.901480 -19.775511 -1.869334
H 27.052000 28.399491 6.880177 0 -23.132685 49.689753 -7.595254
O 21.190068 29.984072 13.033364 0 11.283769 -4.752238 -1.646621
H 21.944282 30.540585 13.234988 0 19.388733 -1.762163 -0.546146
H 20.441312 30.538211 13.227773 0 -30.672502 6.514401 2.192767
O 15.179707 27.497239 7.081866 0 12.508920 0.735110 2.736021
H 15.322959 28.420517 6.877266 0 -2.976052 -1.820549 -0.226541
H 14.258477 27.341254 6.906635 0 -9.532868 1.085439 -2.509481
O 12.692098 21.489311 13.039354 0 34.753823 -8.215004 -11.221808
H 12.144278 22.233174 13.209571 0 -21.011787 46.448825 6.334175
H 12.161925 20.728519 13.220165 0 -13.742036 -38.233820 4.887633
O 15.181000 15.479853 7.091866 0 -1.145345 -21.843996 -5.569736
H 14.254860 15.624749 6.886405 0 23.182369 -19.311752 1.357152
H 15.330642 14.541207 6.904157 0 -22.037024 41.155748 4.212584
O 21.192127 12.987540 13.027470 0 1.413076 54.188300 -19.470545
H 20.437619 12.471987 13.216185 0 -84.249803 -25.857957 9.682468
H 21.928659 12.446821 13.218242 0 82.836727 -28.330343 9.788078
O 27.192255 15.479359 7.090838 0 -11.097814 4.010296 3.980418
H 27.044372 14.557655 6.893300 0 -13.741300 -18.640709 -1.137483
H 28.109478 15.620692 6.883350 0 24.839114 14.630412 -2.842935
46
Properties=species:S:1:pos:R:3:subsystem:I:1:forces:R:3 energy=22.02354229 step=15 pos_unit=Angstrom force_unit=kJ/mol/nm pbc="F F F"
C 23.891140 23.915110 10.333880 0 -14.703063 12.347995 -10.941108
H 23.514249 24.647699 9.610902 0 8.718148 -16.946061 16.723737
H 24.388864 24.511681 11.099042 0 -1.382147 -1.656638 -2.124807
H 24.604880 23.251071 9.832594 0 -1.105042 1.028092 0.776111
C 22.715133 23.189607 10.949351 0 10.576355 6.010621 -5.784476
O 22.212124 23.570702 11.990637 0 -1.211497 0.917869 2.507943
N 22.185091 22.179176 10.262186 1 -89.128389 -4.963083 84.385341
H 22.654568 21.945099 9.430284 1 41.988642 -20.935150 -74.402801
C 20.944237 21.529964 10.561082 1 110.465194 -2.282090 6.663436
H 21.041102 21.064594 11.536300 1 0.394308 -1.894387 3.969835
C 19.690844 22.434173 10.449989 1 -160.213261 -97.922654 34.793827
H 19.538472 22.773194 9.434123 1 -6.621375 14.732239 -44.144736
H 18.810782 21.859697 10.844620 1 93.510830 61.040829 -41.931360
H 19.841512 23.307898 11.049597 1 11.509411 66.743070 45.803455
C 20.758843 20.455232 9.481464 1 12.130242 -3.330897 -29.595074
O 21.299688 20.520681 8.359609 1 -4.006384 -0.484822 8.310294
N 19.922287 19.505091 9.863696 0 -10.498899 -22.618123 -10.065843
H 19.603424 19.564612 10.812516 0 -2.729293 0.509473 8.121380
C 19.644092 18.334547 9.027157 0 -35.646109 15.434945 2.708474
H 19.568854 18.646402 7.986157 0 0.756140 -3.134162 10.462089
H 20.500545 17.685556 9.093151 0 17.821885 -13.504798 1.373279
H 18.738181 17.824519 9.382941 0 19.374304 10.907731 -7.608995
O 29.682809 21.491021 13.028135 0 -12.464794 22.407982 -4.312131
H 30.239798 20.753411 13.224004 0 14.830229 -35.620947 5.022321
H 30.219021 22.258991 13.234532 0 -2.365436 13.212966 -0.710190
O 27.197957 27.492293 7.082652 0 -9.360964 -43.386570 13.913132
H 28.118459 27.340746 6.911150 0 42.186342 -27.728687 -2.230563
H 27.052622 28.389972 6.873067 0 -32.825378 71.115257 -11.682569
O 21.191247 29.985333 13.033014 0 16.612345 -6.484179 -2.227150
H 21.944325 30.543588 13.238671 0 27.502299 -2.863812 -0.855167
H 20.446199 30.540130 13.227882 0 -44.114644 9.347991 3.082317
O 15.179045 27.499111 7.078924 0 18.182716 1.178022 3.819871
H 15.321766 28.420871 6.868792 0 -4.834241 -3.182028 -0.260698
H 14.260206 27.337257 6.912817 0 -13.348475 2.004006 -3.559174
O 12.691674 21.490551 13.041990 0 50.194523 -11.953535 -15.497743
H 12.146150 22.228454 13.200631 0 -30.821801 66.082366 8.570300
H 12.172710 20.727369 13.216504 0 -19.372722 -54.128831 6.927442
O 15.180975 15.479693 7.093918 0 -1.309423 -31.829786 -7.936644
H 14.255187 15.624703 6.882520 0 33.020447 -27.733151 2.161093
H 15.333053 14.535385 6.909184 0 -31.711024 59.562936 5.775551
O 21.194328 12.985306 13.024158 0 2.182365 77.566171 -28.253545
H 20.439994 12.488107 13.210593 0 -120.211409 -35.799794 13.898223
H 21.921678 12.450329 13.213680 0 118.029043 -41.766377 14.355321
O 27.191172 15.478972 7.092383 0 -15.836611 5.629369 5.830503
H 27.041295 14.559315 6.892831 0 -19.626707 -26.490698 -1.536471
H 28.104189 15.619039 6.877885 0 35.463318 20.861329 -4.294031
46
Properties=species:S:1:pos:R:3:subsystem:I:1:forces:R:3 energy=22.02384717 step=20 pos_unit=Angstrom force_unit=kJ/mol/nm pbc="F F F"
C 23.891502 23.916829 10.335159 0 -19.630292 16.150827 -14.100320
H 23.505800 24.653337 9.614795 0 11.668498 -22.281285 21.792889
H 24.385131 24.515549 11.102024 0 -1.833856 -2.224270 -2.848939
H 24.606490 23.251444 9.836804 0 -1.489835 1.386475 1.038431
C 22.713524 23.189484 10.949128 0 14.064650 8.021547 -7.653868
O 22.212831 23.570937 11.990852 0 -1.590788 1.211943 3.309745
N 22.183355 22.178897 10.263009 1 -115.322518 -8.590804 106.792467
H 22.653413 21.953135 9.435882 1 53.267372 -25.583575 -93.730861
C 20.939127 21.526615 10.561451 1 145.314851 -3.542939 9.287725
H 21.038142 21.066095 11.538463 1 0.498640 -2.319172 4.920217
C 19.694250 22.432102 10.450032 1 -205.955070 -121.575973 42.359381
H 19.551190 22.777821 9.438137 1 -7.759910 18.752611 -54.887520
H 18.809170 21.850547 10.845504 1 117.999558 77.533374 -52.724607
H 19.842197 23.301573 11.046844 1 14.371115 84.457442 57.972275
C 20.758472 20.453638 9.481913 1 16.175907 -4.290549 -39.098973
O 21.299580 20.520907 8.359487 1 -5.263191 -0.654307 10.917518
N 19.923038 19.506762 9.864917 0 -14.027224 -30.054529 -12.837729
H 19.597857 19.569491 10.810149 0 -3.543137 0.683483 10.299133
C 19.645409 18.332749 9.029546 0 -46.553112 20.114826 3.650179
H 19.568484 18.638488 7.985037 0 1.017395 -4.043616 13.814380
H 20.501004 17.687198 9.087557 0 22.982945 -17.340758 1.558308
H 18.731207 17.826195 9.380469 0 25.608002 14.189249 -9.829829
O 29.682915 21.492444 13.026154 0 -15.689187 29.174041 -5.385863
H 30.241479 20.760701 13.222880 0 19.179244 -44.636745 6.438374
H 30.213512 22.264275 13.236829 0 -3.490057 15.462704 -1.052510
O 27.199132 27.491850 7.080965 0 -11.155224 -55.309221 17.945003
H 28.118385 27.337465 6.916759 0 51.599221 -33.643737 -2.248994
H 27.052919 28.381156 6.865841 0 -40.443998 88.952958 -15.696009
O 21.192436 29.986589 13.032662 0 21.584626 -7.492582 -2.536165
H 21.944639 30.546564 13.242345 0 33.863063 -4.206034 -1.238566
H 20.450650 30.542142 13.228021 0 -55.447689 11.698616 3.774732
O 15.178395 27.500984 7.075984 0 23.349245 1.599980 4.717158
H 15.320525 28.421194 6.860315 0 -6.925443 -4.803008 -0.237305
H 14.261802 27.333280 6.918963 0 -16.423802 3.203028 -4.479853
O 12.691280 21.491784 13.044617 0 63.721659 -15.368601 -18.746879
H 12.147718 22.224386 13.191775 0 -39.725565 81.851658 10.154421
H 12.183303 20.725686 13.212911 0 -23.996094 -66.483057 8.592458
O 15.180949 15.479512 7.095964 0 -1.021076 -40.700671 -9.863848
H 14.255840 15.624382 6.878656 0 40.791733 -34.642467 2.927107
H 15.335152 14.530152 6.914268 0 -39.770658 75.343138 6.936740
O 21.196531 12.983120 13.020829 0 2.846685 97.340506 -35.954904
H 20.441182 12.503873 13.205139 0 -149.194197 -43.400148 17.485224
H 21.915863 12.453424 13.209259 0 146.347512 -53.940358 18.469680
O 27.190078 15.478588 7.093931 0 -19.770222 6.804326 7.439047
H 27.038025 14.560713 6.892347 0 -24.396628 -32.715690 -1.786670
H 28.099250 15.617592 6.872378 0 44.166850 25.911364 -5.652378
46
Properties=species:S:1:pos:R:3:subsystem:I:1:forces:R:3 energy=22.02412108 step=25 pos_unit=Angstrom force_unit=kJ/mol/nm pbc="F F F"
C 23.891846 23.918562 10.336426 0 -24.461444 19.595722 -16.855227
H 23.497466 24.658754 9.618904 0 14.525704 -27.262497 26.427521
H 24.381380 24.519395 11.104977 0 -2.268491 -2.784251 -3.561457
H 24.608085 23.251831 9.841024 0 -1.877978 1.748169 1.298943
C 22.711927 23.189367 10.948897 0 17.516850 10.026249 -9.485215
O 22.213537 23.571172 11.991069 0 -1.954498 1.497298 4.087013
N 22.181537 22.178611 10.263909 1 -138.569201 -13.365503 124.750431
H 22.652783 21.960918 9.440554 1 62.267073 -28.764428 -108.792139
C 20.934137 21.523264 10.561828 1 178.707409 -5.062181 12.144529
H 21.035187 21.067574 11.540674 1 0.582834 -2.628317 5.645758
C 19.697484 22.429931 10.450110 1 -245.550815 -137.816575 47.171371
H 19.563831 22.782634 9.441609 1 -8.319665 21.955127 -62.777224
H 18.808724 21.842164 10.845866 1 137.182870 90.723605 -61.086312
H 19.843024 23.296083 11.044664 1 16.559088 98.548240 67.646649
C 20.758116 20.452041 9.482330 1 20.176796 -5.154876 -48.305758
O 21.299468 20.521133 8.359371 1 -6.450511 -0.823274 13.380674
N 19.923779 19.508413 9.866129 0 -17.584995 -37.387041 -15.231871
H 19.592254 19.574376 10.807883 0 -4.270989 0.849800 12.132498
C 19.646688 18.330968 9.031938 0 -56.518785 24.475819 4.629923
H 19.568123 18.630533 7.984054 0 1.273214 -4.854731 16.981929
H 20.501690 17.688668 9.081979 0 27.543753 -20.691581 1.612064
H 18.724487 17.828011 9.377900 0 31.491782 17.175226 -11.814102
O 29.683012 21.493886 13.024171 0 -18.196666 35.365168 -6.177736
H 30.243351 20.767550 13.221820 0 22.970748 -51.527211 7.657784
H 30.207968 22.269712 13.239116 0 -4.774082 16.162043 -1.480047
O 27.200300 27.491372 7.079288 0 -12.008645 -65.347937 21.413159
H 28.118820 27.333853 6.922347 0 57.508399 -37.096253 -2.003686
H 27.052817 28.373219 6.858460 0 -45.499754 102.444190 -19.409473
O 21.193639 29.987841 13.032308 0 26.101088 -7.604630 -2.506594
H 21.945287 30.549497 13.246007 0 38.066905 -5.838667 -1.732296
H 20.454552 30.544270 13.228198 0 -64.167993 13.443297 4.238890
O 15.177759 27.502858 7.073047 0 27.938833 1.941499 5.440467
H 15.319216 28.421469 6.851836 0 -9.219126 -6.625172 -0.157104
H 14.263237 27.329336 6.925066 0 -18.719707 4.683674 -5.283363
O 12.690927 21.493007 13.047232 0 74.975459 -18.419007 -20.934691
H 12.148892 22.221127 13.183020 0 -47.419272 92.896335 11.115648
H 12.193660 20.723346 13.209403 0 -27.556187 -74.477327 9.819043
O 15.180922 15.479307 7.098004 0 -0.190959 -48.144147 -11.256470
H 14.256895 15.623720 6.874821 0 45.969492 -39.619574 3.555335
H 15.336857 14.525664 6.919421 0 -45.778534 87.763721 7.701135
O 21.198735 12.980995 13.017477 0 3.263352 112.894186 -42.297330
H 20.440897 12.519210 13.199857 0 -169.459662 -48.596204 20.321380
H 21.911493 12.455985 13.205022 0 166.196310 -64.297982 21.975949
O 27.188973 15.478208 7.095484 0 -22.746165 7.427028 8.703774
H 27.034513 14.561788 6.891845 0 -27.778661 -36.941159 -1.874140
H 28.094748 15.616401 6.866815 0 50.524826 29.514131 -6.829634
46
Properties=species:S:1:pos:R:3:subsystem:I:1:forces:R:3 energy=22.02431390 step=30 pos_unit=Angstrom force_unit=kJ/mol/nm pbc="F F F"
C 23.892171 23.920311 10.337679 0 -29.129366 22.571537 -19.124848
H 23.489275 24.663901 9.623275 0 17.219674 -31.780886 30.533500
H 24.377606 24.523214 11.107895 0 -2.678874 -3.327116 -4.250438
H 24.609662 23.252235 9.845257 0 -2.266428 2.110336 1.555475
C 22.710344 23.189259 10.948659 0 20.920432 12.015188 -11.275635
O 22.214242 23.571409 11.991289 0 -2.300791 1.772310 4.835443
N 22.179620 22.178316 10.264897 1 -158.288682 -19.271927 137.564234
H 22.652770 21.968416 9.444150 1 68.555498 -30.412696 -118.919488
C 20.929296 21.519909 10.562215 1 210.390408 -6.826890 15.235286
H 21.032238 21.069026 11.542941 1 0.644306 -2.822034 6.138279
C 19.700515 22.427645 10.450226 1 -277.946555 -145.333382 48.962558
H 19.576390 22.787664 9.444461 1 -8.325981 24.149200 -67.464257
H 18.809635 21.834678 10.845626 1 150.208000 99.978004 -66.666803
H 19.844014 23.291567 11.043153 1 18.008454 108.417607 74.409144
C 20.757776 20.450439 9.482707 1 24.104377 -5.914617 -57.149603
O 21.299353 20.521358 8.359264 1 -7.551059 -0.988812 15.663857
N 19.924507 19.510036 9.867330 0 -21.179925 -44.584228 -17.208337
H 19.586609 19.579270 10.805737 0 -4.891539 1.002254 13.584756
C 19.647920 18.329208 9.034334 0 -65.295050 28.475231 5.655783
H 19.567776 18.622530 7.983240 0 1.517297 -5.553213 19.899393
H 20.502649 17.689934 9.076416 0 31.395435 -23.481448 1.545748
H 18.718079 17.829997 9.375215 0 36.890368 19.805580 -13.524050
O 29.683097 21.495349 13.022183 0 -19.887546 40.868225 -6.645610
H 30.245450 20.773889 13.220836 0 26.073075 -56.023487 8.652111
H 30.202377 22.275307 13.241387 0 -6.185529 15.155262 -2.006502
O 27.201460 27.490853 7.077625 0 -11.843006 -73.254695 24.199237
H 28.119823 27.329875 6.927914 0 59.483569 -37.799210 -1.605374
H 27.052266 28.366294 6.850887 0 -47.640563 111.053906 -22.593863
O 21.194858 29.989089 13.031953 0 30.072689 -6.699196 -2.089143
H 21.946312 30.552372 13.249651 0 39.833903 -7.788745 -2.366500
H 20.457821 30.546530 13.228416 0 -69.906592 14.487941 4.455643
O 15.177141 27.504733 7.070113 0 31.899910 2.140785 6.009846
H 15.317814 28.421678 6.843355 0 -11.669890 -8.570250 -0.025403
H 14.264486 27.325437 6.931116 0 -20.230020 6.429466 -5.984443
O 12.690620 21.494219 13.049835 0 83.707567 -21.074333 -22.082969
H 12.149597 22.218785 13.174375 0 -53.643306 98.607960 11.520947
H 12.203744 20.720271 13.205992 0 -30.064262 -77.533627 10.562022
O 15.180895 15.479071 7.100037 0 1.226320 -53.908544 -12.046579
H 14.258404 15.622667 6.871021 0 48.182212 -42.353077 3.948082
H 15.338110 14.522043 6.924649 0 -49.408533 96.261621 8.098496
O 21.200941 12.978940 13.014099 0 3.278241 123.845018 -47.073255
H 20.438939 12.534068 13.194776 0 -179.722156 -51.489918 22.324676
H 21.908764 12.457910 13.201002 0 176.443915 -72.355101 24.748580
O 27.187853 15.477833 7.097042 0 -24.658222 7.424304 9.537443
H 27.030728 14.562499 6.891325 0 -29.575679 -38.906215 -1.796223
H 28.090745 15.615501 6.861185 0 54.233902 31.481911 -7.741220
46
Properties=species:S:1:pos:R:3:subsystem:I:1:forces:R:3 energy=22.02439215 step=35 pos_unit=Angstrom force_unit=kJ/mol/nm pbc="F F F"
C 23.892471 23.922079 10.338916 0 -33.568136 24.977348 -20.840850
H 23.481256 24.668733 9.627948 0 19.682196 -35.737481 34.029434
H 24.373805 24.526999 11.110771 0 -3.058245 -3.843467 -4.904116
H 24.611216 23.252660 9.849505 0 -2.652026 2.470025 1.805830
C 22.708779 23.189161 10.948412 0 24.261357 13.976148 -13.023913
O 22.214946 23.571647 11.991511 0 -2.627937 2.035398 5.550858
N 22.177591 22.178007 10.265983 1 -174.023140 -26.219631 144.756671
H 22.653434 21.975615 9.446571 1 71.809686 -30.543045 -123.657779
C 20.924630 21.516548 10.562614 1 240.133264 -8.812509 18.549211
H 21.029295 21.070450 11.545269 1 0.681670 -2.905358 6.399872
C 19.703314 22.425239 10.450384 1 -302.369042 -143.205509 47.600573
H 19.588867 22.792932 9.446646 1 -7.837758 25.180943 -68.739407
H 18.812030 21.828180 10.844726 1 156.496988 104.835145 -69.240894
H 19.845183 23.288122 11.042378 1 18.685606 113.651000 77.971916
C 20.757456 20.448832 9.483036 1 27.929865 -6.562371 -65.567980
O 21.299233 20.521583 8.359167 1 -8.548291 -1.147883 17.732702
N 19.925220 19.511628 9.868518 0 -24.818037 -51.615029 -18.736155
H 19.580916 19.584174 10.803726 0 -5.385310 1.134697 14.627725
C 19.649097 18.327471 9.036734 0 -72.658639 32.077743 6.733432
H 19.567443 18.614473 7.982623 0 1.743436 -6.127890 22.506741
H 20.503919 17.690966 9.070869 0 34.444455 -25.647503 1.375421
H 18.712036 17.832180 9.372395 0 41.678038 22.029232 -14.929295
O 29.683170 21.496838 13.020191 0 -20.704501 45.584988 -6.763570
H 30.247807 20.779675 13.219938 0 28.379694 -57.974904 9.401942
H 30.196725 22.281052 13.243639 0 -7.675194 12.389916 -2.638371
O 27.202613 27.490288 7.075977 0 -10.654584 -78.876979 26.219950
H 28.121412 27.325525 6.933466 0 57.325069 -35.617981 -1.186205
H 27.051245 28.360467 6.843091 0 -46.670485 114.494960 -25.033746
O 21.196096 29.990332 13.031597 0 33.421842 -4.714780 -1.255979
H 21.947729 30.555170 13.253272 0 39.023945 -10.056583 -3.162094
H 20.460399 30.548933 13.228678 0 -72.445786 14.771363 4.418073
O 15.176543 27.506610 7.067183 0 35.199659 2.136313 6.451648
H 15.316297 28.421802 6.834874 0 -14.219598 -10.543229 0.147376
H 14.265536 27.321603 6.937106 0 -20.980062 8.406916 -6.599023
O 12.690365 21.495417 13.052423 0 89.794903 -23.311549 -22.266465
H 12.149771 22.217416 13.165843 0 -58.198767 98.663438 11.467918
H 12.213530 20.716431 13.202685 0 -31.596135 -75.351889 10.798547
O 15.180869 15.478802 7.102063 0 3.228992 -57.813443 -12.196917
H 14.260389 15.621195 6.867260 0 47.235083 -42.659518 4.017688
H 15.338875 14.519374 6.929958 0 -50.464074 100.472962 8.179229
O 21.203150 12.976962 13.010692 0 2.742607 130.071974 -50.160345
H 20.435206 12.548416 13.189916 0 -179.227382 -52.335823 23.459497
H 21.907778 12.459119 13.197227 0 176.484775 -77.736151 26.700848
O 27.186718 15.477462 7.098607 0 -25.451122 6.763435 9.873839
H 27.026650 14.562826 6.890788 0 -29.676396 -38.478434 -1.561538
H 28.087277 15.614912 6.855478 0 55.127518 31.714999 -8.312301
46
Properties=species:S:1:pos:R:3:subsystem:I:1:forces:R:3 energy=22.02434559 step=40 pos_unit=Angstrom force_unit=kJ/mol/nm pbc="F F F"
C 23.892743 23.923868 10.340136 0 -37.714727 26.724874 -21.948925
H 23.473432 24.673211 9.632959 0 21.848693 -39.045356 36.848272
H 24.369975 24.530746 11.113598 0 -3.400390 -4.324158 -5.511103
H 24.612743 23.253109 9.853772 0 -3.031463 2.824137 2.047772
C 22.707234 23.189075 10.948154 0 27.524051 15.894226 -14.730456
O 22.215647 23.571886 11.991737 0 -2.934314 2.285022 6.229218
N 22.175437 22.177679 10.267172 1 -185.454371 -34.048429 146.089032
H 22.654807 21.982511 9.447770 1 71.831741 -29.245071 -122.784111
C 20.920163 21.513179 10.563029 1 267.727892 -10.983693 22.063454
H 21.026359 21.071846 11.547661 1 0.694849 -2.887683 6.442535
C 19.705863 22.422714 10.450580 1 -318.352610 -130.950414 43.093811
H 19.601266 22.798449 9.448153 1 -6.943518 24.942800 -66.545070
H 18.815972 21.822718 10.843141 1 155.772483 105.027350 -68.716509
H 19.846536 23.285802 11.042373 1 18.586417 114.035167 78.190386
C 20.757160 20.447220 9.483311 1 31.624523 -7.092570 -73.501997
O 21.299108 20.521807 8.359080 1 -9.426548 -1.297355 19.554674
N 19.925915 19.513183 9.869693 0 -28.503116 -58.449017 -19.793880
H 19.575169 19.589089 10.801860 0 -5.735226 1.241171 15.242325
C 19.650215 18.325760 9.039141 0 -78.416654 35.256147 7.866045
H 19.567128 18.606354 7.982228 0 1.945714 -6.570882 24.750532
H 20.505530 17.691745 9.065335 0 36.614867 -27.141309 1.121340
H 18.706406 17.834580 9.369427 0 45.741706 23.805044 -16.007347
O 29.683230 21.498355 13.018195 0 -20.635193 49.432379 -6.523934
H 30.250445 20.784887 13.219132 0 29.814220 -57.354541 9.896960
H 30.190996 22.286918 13.245864 0 -9.179028 7.922162 -3.373026
O 27.203760 27.489675 7.074346 0 -8.518590 -82.161604 27.431373
H 28.123567 27.320823 6.939005 0 51.080035 -30.577853 -0.887133
H 27.049763 28.355772 6.835046 0 -42.561445 112.739457 -26.544240
O 21.197355 29.991572 13.031240 0 36.083198 -1.653913 -0.003182
H 21.949531 30.557867 13.256861 0 35.644729 -12.613698 -4.127877
H 20.462260 30.551483 13.228985 0 -71.727928 14.267611 4.131059
O 15.175966 27.508487 7.064257 0 37.823972 1.869638 6.797062
H 15.314639 28.421821 6.826395 0 -16.800272 -12.436800 0.345550
H 14.266378 27.317853 6.943031 0 -21.023700 10.567162 -7.142611
O 12.690166 21.496601 13.054998 0 93.245487 -25.111292 -21.605509
H 12.149369 22.217022 13.157425 0 -60.961062 93.043514 11.075041
H 12.223004 20.711848 13.199485 0 -32.284425 -67.932223 10.530468
O 15.180845 15.478496 7.104081 0 5.767420 -59.756901 -11.703269
H 14.262839 15.619302 6.863538 0 43.121522 -40.494988 3.694094
H 15.339142 14.517698 6.935347 0 -48.888942 100.251889 8.009175
O 21.205360 12.975066 13.007253 0 1.531874 131.721183 -51.531202
H 20.429704 12.562246 13.185288 0 -167.806159 -51.514560 23.739675
H 21.908534 12.459560 13.193715 0 166.274285 -80.206624 27.791526
O 27.185567 15.477096 7.100177 0 -25.122335 5.455048 9.672641
H 27.022280 14.562772 6.890235 0 -28.061591 -35.661570 -1.189195
H 28.084355 15.614636 6.849689 0 53.183926 30.206522 -8.483446
