22
Properties=species:S:1:pos:R:3:subsystem:I:1:forces:R:3 energy=9.64968233 step=0 pos_unit=Angstrom force_unit=kJ/mol/nm pbc="F F F"
C 23.890000 23.910000 10.330000 0 0.000000 0.000000 0.000000
H 23.540000 24.630000 9.600000 0 0.000000 0.000000 0.000000
H 24.400000 24.500000 11.090000 0 0.000000 0.000000 0.000000
H 24.600000 23.250000 9.820000 0 0.000000 0.000000 0.000000
C 22.720000 23.190000 10.950000 0 0.000000 0.000000 0.000000
O 22.210000 23.570000 11.990000 0 0.000000 0.000000 0.000000
N 22.190000 22.180000 10.260000 1 0.000000 0.000000 0.000000
H 22.660000 21.920000 9.410000 1 0.000000 0.000000 0.000000
C 20.960000 21.540000 10.560000 1 0.000000 0.000000 0.000000
H 21.050000 21.060000 11.530000 1 0.000000 0.000000 0.000000
C 19.680000 22.440000 10.450000 1 0.000000 0.000000 0.000000
H 19.500000 22.760000 9.420000 1 0.000000 0.000000 0.000000
H 18.820000 21.890000 10.840000 1 0.000000 0.000000 0.000000
H 19.840000 23.330000 11.060000 1 0.000000 0.000000 0.000000
C 20.760000 20.460000 9.480000 1 0.000000 0.000000 0.000000
O 21.300000 20.520000 8.360000 1 0.000000 0.000000 0.000000
N 19.920000 19.500000 9.860000 0 0.000000 0.000000 0.000000
H 19.620000 19.550000 10.820000 0 0.000000 0.000000 0.000000
C 19.640000 18.340000 9.020000 0 0.000000 0.000000 0.000000
H 19.570000 18.670000 7.990000 0 0.000000 0.000000 0.000000
H 20.500000 17.680000 9.110000 0 0.000000 0.000000 0.000000
H 18.760000 17.820000 9.390000 0 0.000000 0.000000 0.000000
22
Properties=species:S:1:pos:R:3:subsystem:I:1:forces:R:3 energy=9.64970926 step=5 pos_unit=Angstrom force_unit=kJ/mol/nm pbc="F F F"
C 23.890689 23.912051 10.330664 0 -4.825111 4.148161 -3.786581
H 23.531682 24.636328 9.602925 0 2.817080 -5.683301 5.710470
H 24.396598 24.504253 11.092390 0 -0.457568 -0.535616 -0.688941
H 24.601935 23.250705 9.823561 0 -0.357251 0.332187 0.254712
C 22.718677 23.190220 10.949152 0 3.534663 1.995953 -1.950979
O 22.211012 23.570586 11.989578 0 -0.414021 0.310205 0.848509
N 22.188696 22.180079 10.260067 1 -30.690276 -0.832898 29.904089
H 22.658300 21.928820 9.416472 1 14.746755 -7.890170 -26.490999
C 20.955008 21.537008 10.559725 1 37.506855 -0.527304 2.048478
H 21.047336 21.061893 11.531448 1 0.140386 -0.722419 1.477520
C 19.683980 22.438449 10.449349 1 -55.674309 -35.171608 13.072820
H 19.513161 22.764684 9.424282 1 -2.681410 5.121051 -16.090926
H 18.816799 21.879972 10.841101 1 33.165652 21.359143 -14.982712
H 19.840754 23.322678 11.055688 1 4.182583 23.590376 16.176533
C 20.759913 20.458765 9.479865 1 4.015674 -1.171854 -9.973365
O 21.300201 20.520580 8.359234 1 -1.356300 -0.155177 2.813157
N 19.921069 19.502057 9.860602 0 -3.494668 -7.559642 -3.588557
H 19.614791 19.555221 10.816834 0 -0.934494 0.162212 2.917582
C 19.641681 18.338529 9.021751 0 -12.087635 5.320718 0.896242
H 19.569918 18.662501 7.988039 0 0.241780 -1.091517 3.482751
H 20.500404 17.682267 9.103743 0 6.195437 -4.734741 0.591548
H 18.752945 17.821810 9.387048 0 6.426180 3.736241 -2.641352
22
Properties=species:S:1:pos:R:3:subsystem:I:1:forces:R:3 energy=9.64977942 step=10 pos_unit=Angstrom force_unit=kJ/mol/nm pbc="F F F"
C 23.891374 23.914106 10.331324 0 -9.746462 8.305944 -7.469542
H 23.523393 24.642599 9.605907 0 5.744839 -11.373048 11.325042
H 24.393191 24.508502 11.094773 0 -0.920839 -1.090721 -1.400935
H 24.603867 23.251414 9.827124 0 -0.726550 0.675767 0.514148
C 22.717357 23.190441 10.948303 0 7.063071 4.000491 -3.881530
O 22.212024 23.571173 11.989157 0 -0.818563 0.616728 1.686025
N 22.187371 22.180158 10.260155 1 -60.666382 -2.421497 58.411764
H 22.656747 21.937563 9.422683 1 28.952495 -14.963988 -51.657755
C 20.950047 21.534015 10.559451 1 74.431710 -1.280548 4.258406
H 21.044673 21.063779 11.532910 1 0.273436 -1.358820 2.812959
C 19.687913 22.436868 10.448708 1 -109.622302 -68.493252 24.865582
H 19.526296 22.769418 9.428405 1 -4.913824 10.110899 -31.021499
H 18.813926 21.870156 10.842054 1 64.806543 42.021976 -29.166755
H 19.841549 23.315589 11.051535 1 8.070729 46.160554 31.667427
C 20.759830 20.457528 9.479723 1 8.067780 -2.287029 -19.862798
O 21.300400 20.521159 8.358469 1 -2.697974 -0.317582 5.596149
N 19.922136 19.504108 9.861201 0 -6.991177 -15.109360 -6.964333
H 19.609572 19.560444 10.813697 0 -1.852011 0.333803 5.643745
C 19.643352 18.337063 9.023503 0 -24.064585 10.485361 1.794540
H 19.569839 18.654991 7.986113 0 0.495638 -2.143548 6.994314
H 20.500870 17.684487 9.097492 0 12.182202 -9.270725 1.051112
H 18.745955 17.823657 9.384070 0 12.932228 7.398595 -5.196065
22
Properties=species:S:1:pos:R:3:subsystem:I:1:forces:R:3 energy=9.64988145 step=15 pos_unit=Angstrom force_unit=kJ/mol/nm pbc="F F F"
C 23.892051 23.916168 10.331979 0 -14.703063 12.347995 -10.941108
H 23.515160 24.648757 9.609001 0 8.718148 -16.946061 16.723737
H 24.389775 24.512739 11.097142 0 -1.382147 -1.656638 -2.124807
H 24.605791 23.252130 9.830693 0 -1.105042 1.028092 0.776111
C 22.716043 23.190665 10.947451 0 10.576355 6.010621 -5.784476
O 22.213035 23.571760 11.988737 0 -1.211497 0.917869 2.507943
N 22.186002 22.180235 10.260285 1 -89.128389 -4.963083 84.385341
H 22.655479 21.946157 9.428383 1 41.988642 -20.935150 -74.402801
C 20.945148 21.531022 10.559181 1 110.465194 -2.282090 6.663436
H 21.042013 21.065652 11.534400 1 0.394308 -1.894387 3.969835
C 19.691755 22.435231 10.448089 1 -160.213261 -97.922654 34.793827
H 19.539383 22.774252 9.432222 1 -6.621375 14.732239 -44.144736
H 18.811693 21.860755 10.842719 1 93.510830 61.040829 -41.931360
H 19.842423 23.308957 11.047696 1 11.509411 66.743070 45.803455
C 20.759754 20.456290 9.479563 1 12.130242 -3.330897 -29.595074
O 21.300599 20.521739 8.357708 1 -4.006384 -0.484822 8.310294
N 19.923198 19.506149 9.861796 0 -10.498899 -22.618123 -10.065843
H 19.604335 19.565670 10.810615 0 -2.729293 0.509473 8.121380
C 19.645003 18.335605 9.025256 0 -35.646109 15.434945 2.708474
H 19.569765 18.647461 7.984256 0 0.756140 -3.134162 10.462089
H 20.501456 17.686615 9.091251 0 17.821885 -13.504798 1.373279
H 18.739092 17.825577 9.381040 0 19.374304 10.907731 -7.608995
22
Properties=species:S:1:pos:R:3:subsystem:I:1:forces:R:3 energy=9.64999891 step=20 pos_unit=Angstrom force_unit=kJ/mol/nm pbc="F F F"
C 23.892716 23.918240 10.332624 0 -19.630292 16.150827 -14.100320
H 23.507014 24.654748 9.612261 0 11.668498 -22.281285 21.792889
H 24.386346 24.516960 11.099490 0 -1.833856 -2.224270 -2.848939
H 24.607705 23.252855 9.834269 0 -1.489835 1.386475 1.038431
C 22.714738 23.190895 10.946593 0 14.064650 8.021547 -7.653868
O 22.214046 23.572348 11.988318 0 -1.590788 1.211943 3.309745
N 22.184570 22.180308 10.260475 1 -115.322518 -8.590804 106.792467
H 22.654627 21.954546 9.433348 1 53.267372 -25.583575 -93.730861
C 20.940341 21.528026 10.558917 1 145.314851 -3.542939 9.287725
H 21.039357 21.067506 11.535929 1 0.498640 -2.319172 4.920217
C 19.695464 22.433513 10.447498 1 -205.955070 -121.575973 42.359381
H 19.552404 22.779232 9.435603 1 -7.759910 18.752611 -54.887520
H 18.810384 21.851958 10.842969 1 117.999558 77.533374 -52.724607
H 19.843412 23.302984 11.044310 1 14.371115 84.457442 57.972275
C 20.759687 20.455049 9.479379 1 16.175907 -4.290549 -39.098973
O 21.300794 20.522318 8.356952 1 -5.263191 -0.654307 10.917518
N 19.924253 19.508173 9.862383 0 -14.027224 -30.054529 -12.837729
H 19.599071 19.570902 10.807614 0 -3.543137 0.683483 10.299133
C 19.646624 18.334160 9.027011 0 -46.553112 20.114826 3.650179
H 19.569698 18.639899 7.982503 0 1.017395 -4.043616 13.814380
H 20.502218 17.688609 9.085023 0 22.982945 -17.340758 1.558308
H 18.732422 17.827606 9.377935 0 25.608002 14.189249 -9.829829
22
Properties=species:S:1:pos:R:3:subsystem:I:1:forces:R:3 energy=9.65011303 step=25 pos_unit=Angstrom force_unit=kJ/mol/nm pbc="F F F"
C 23.893365 23.920326 10.333258 0 -24.461444 19.595722 -16.855227
H 23.498984 24.660518 9.615736 0 14.525704 -27.262497 26.427521
H 24.382898 24.521159 11.101809 0 -2.268491 -2.784251 -3.561457
H 24.609604 23.253595 9.837856 0 -1.877978 1.748169 1.298943
C 22.713445 23.191131 10.945730 0 17.516850 10.026249 -9.485215
O 22.215056 23.572936 11.987902 0 -1.954498 1.497298 4.087013
N 22.183055 22.180375 10.260741 1 -138.569201 -13.365503 124.750431
H 22.654301 21.962681 9.437386 1 62.267073 -28.764428 -108.792139
C 20.935655 21.525028 10.558660 1 178.707409 -5.062181 12.144529
H 21.036705 21.069337 11.537507 1 0.582834 -2.628317 5.645758
C 19.699002 22.431694 10.446942 1 -245.550815 -137.816575 47.171371
H 19.565349 22.784398 9.438441 1 -8.319665 21.955127 -62.777224
H 18.810242 21.843928 10.842699 1 137.182870 90.723605 -61.086312
H 19.844542 23.297846 11.041496 1 16.559088 98.548240 67.646649
C 20.759634 20.453804 9.479163 1 20.176796 -5.154876 -48.305758
O 21.300987 20.522897 8.356203 1 -6.450511 -0.823274 13.380674
N 19.925297 19.510176 9.862961 0 -17.584995 -37.387041 -15.231871
H 19.593772 19.576140 10.804715 0 -4.270989 0.849800 12.132498
C 19.648206 18.332732 9.028770 0 -56.518785 24.475819 4.629923
H 19.569642 18.632297 7.980887 0 1.273214 -4.854731 16.981929
H 20.503208 17.690432 9.078811 0 27.543753 -20.691581 1.612064
H 18.726005 17.829775 9.374733 0 31.491782 17.175226 -11.814102
22
Properties=species:S:1:pos:R:3:subsystem:I:1:forces:R:3 energy=9.65020590 step=30 pos_unit=Angstrom force_unit=kJ/mol/nm pbc="F F F"
C 23.893993 23.922428 10.333878 0 -29.129366 22.571537 -19.124848
H 23.491097 24.666017 9.619474 0 17.219674 -31.780886 30.533500
H 24.379428 24.525330 11.104094 0 -2.678874 -3.327116 -4.250438
H 24.611484 23.254351 9.841455 0 -2.266428 2.110336 1.555475
C 22.712166 23.191376 10.944858 0 20.920432 12.015188 -11.275635
O 22.216064 23.573525 11.987488 0 -2.300791 1.772310 4.835443
N 22.181442 22.180432 10.261096 1 -158.288682 -19.271927 137.564234
H 22.654591 21.970533 9.440349 1 68.555498 -30.412696 -118.919488
C 20.931118 21.522025 10.558413 1 210.390408 -6.826890 15.235286
H 21.034060 21.071142 11.539140 1 0.644306 -2.822034 6.138279
C 19.702336 22.429761 10.446425 1 -277.946555 -145.333382 48.962558
H 19.578212 22.789780 9.440660 1 -8.325981 24.149200 -67.464257
H 18.811456 21.836794 10.841824 1 150.208000 99.978004 -66.666803
H 19.845836 23.293683 11.039352 1 18.008454 108.417607 74.409144
C 20.759598 20.452555 9.478906 1 24.104377 -5.914617 -57.149603
O 21.301175 20.523475 8.355463 1 -7.551059 -0.988812 15.663857
N 19.926329 19.512153 9.863528 0 -21.179925 -44.584228 -17.208337
H 19.588431 19.581386 10.801936 0 -4.891539 1.002254 13.584756
C 19.649742 18.331324 9.030532 0 -65.295050 28.475231 5.655783
H 19.569597 18.624647 7.979439 0 1.517297 -5.553213 19.899393
H 20.504471 17.692050 9.072615 0 31.395435 -23.481448 1.545748
H 18.719900 17.832114 9.371413 0 36.890368 19.805580 -13.524050
22
Properties=species:S:1:pos:R:3:subsystem:I:1:forces:R:3 energy=9.65026349 step=35 pos_unit=Angstrom force_unit=kJ/mol/nm pbc="F F F"
C 23.894597 23.924548 10.334481 0 -33.568136 24.977348 -20.840850
H 23.483382 24.671202 9.623513 0 19.682196 -35.737481 34.029434
H 24.375931 24.529468 11.106336 0 -3.058245 -3.843467 -4.904116
H 24.613341 23.255129 9.845070 0 -2.652026 2.470025 1.805830
C 22.710905 23.191630 10.943977 0 24.261357 13.976148 -13.023913
O 22.217071 23.574116 11.987077 0 -2.627937 2.035398 5.550858
N 22.179716 22.180476 10.261548 1 -174.023140 -26.219631 144.756671
H 22.655559 21.978084 9.442137 1 71.809686 -30.543045 -123.657779
C 20.926755 21.519017 10.558179 1 240.133264 -8.812509 18.549211
H 21.031421 21.072919 11.540834 1 0.681670 -2.905358 6.399872
C 19.705440 22.427708 10.445949 1 -302.369042 -143.205509 47.600573
H 19.590992 22.795401 9.442212 1 -7.837758 25.180943 -68.739407
H 18.814155 21.830649 10.840291 1 156.496988 104.835145 -69.240894
H 19.847308 23.290591 11.037943 1 18.685606 113.651000 77.971916
C 20.759582 20.451301 9.478601 1 27.929865 -6.562371 -65.567980
O 21.301358 20.524052 8.354732 1 -8.548291 -1.147883 17.732702
N 19.927345 19.514097 9.864083 0 -24.818037 -51.615029 -18.736155
H 19.583041 19.586643 10.799291 0 -5.385310 1.134697 14.627725
C 19.651223 18.329940 9.032299 0 -72.658639 32.077743 6.733432
H 19.569568 18.616942 7.978188 0 1.743436 -6.127890 22.506741
H 20.506045 17.693435 9.066434 0 34.444455 -25.647503 1.375421
H 18.714161 17.834649 9.367960 0 41.678038 22.029232 -14.929295
22
Properties=species:S:1:pos:R:3:subsystem:I:1:forces:R:3 energy=9.65027794 step=40 pos_unit=Angstrom force_unit=kJ/mol/nm pbc="F F F"
C 23.895172 23.926690 10.335068 0 -37.714727 26.724874 -21.948925
H 23.475861 24.676033 9.627890 0 21.848693 -39.045356 36.848272
H 24.372404 24.533568 11.108530 0 -3.400390 -4.324158 -5.511103
H 24.615173 23.255931 9.848703 0 -3.031463 2.824137 2.047772
C 22.709663 23.191896 10.943085 0 27.524051 15.894226 -14.730456
O 22.218076 23.574707 11.986669 0 -2.934314 2.285022 6.229218
N 22.177866 22.180500 10.262104 1 -185.454371 -34.048429 146.089032
H 22.657237 21.985333 9.442702 1 71.831741 -29.245071 -122.784111
C 20.922592 21.516001 10.557961 1 267.727892 -10.983693 22.063454
H 21.028788 21.074668 11.542592 1 0.694849 -2.887683 6.442535
C 19.708292 22.425535 10.445512 1 -318.352610 -130.950414 43.093811
H 19.603695 22.801271 9.443084 1 -6.943518 24.942800 -66.545070
H 18.818401 21.825539 10.838073 1 155.772483 105.027350 -68.716509
H 19.848965 23.288624 11.037305 1 18.586417 114.035167 78.190386
C 20.759589 20.450042 9.478243 1 31.624523 -7.092570 -73.501997
O 21.301537 20.524629 8.354012 1 -9.426548 -1.297355 19.554674
N 19.928344 19.516005 9.864625 0 -28.503116 -58.449017 -19.793880
H 19.577598 19.591910 10.796791 0 -5.735226 1.241171 15.242325
C 19.652644 18.328582 9.034072 0 -78.416654 35.256147 7.866045
H 19.569557 18.609176 7.977160 0 1.945714 -6.570882 24.750532
H 20.507959 17.694567 9.060266 0 36.614867 -27.141309 1.121340
H 18.708835 17.837402 9.364359 0 45.741706 23.805044 -16.007347
