22
Properties=species:S:1:pos:R:3:subsystem:I:1:forces:R:3 energy=9.64968233 step=0 pos_unit=Angstrom force_unit=kJ/mol/nm pbc="F F F"
C 23.890000 23.910000 10.330000 0 0.000000 0.000000 0.000000
H 23.540000 24.630000 9.600000 0 0.000000 0.000000 0.000000
H 24.400000 24.500000 11.090000 0 0.000000 0.000000 0.000000
H 24.600000 23.250000 9.820000 0 0.000000 0.000000 0.000000
C 22.720000 23.190000 10.950000 0 0.000000 0.000000 0.000000
O 22.210000 23.570000 11.990000 0 0.000000 0.000000 0.000000
N 22.190000 22.180000 10.260000 0 0.000000 0.000000 0.000000
H 22.660000 21.920000 9.410000 0 0.000000 0.000000 0.000000
C 20.960000 21.540000 10.560000 1 0.000000 0.000000 0.000000
H 21.050000 21.060000 11.530000 1 0.000000 0.000000 0.000000
C 19.680000 22.440000 10.450000 1 0.000000 0.000000 0.000000
H 19.500000 22.760000 9.420000 1 0.000000 0.000000 0.000000
H 18.820000 21.890000 10.840000 1 0.000000 0.000000 0.000000
H 19.840000 23.330000 11.060000 1 0.000000 0.000000 0.000000
C 20.760000 20.460000 9.480000 0 0.000000 0.000000 0.000000
O 21.300000 20.520000 8.360000 0 0.000000 0.000000 0.000000
N 19.920000 19.500000 9.860000 0 0.000000 0.000000 0.000000
H 19.620000 19.550000 10.820000 0 0.000000 0.000000 0.000000
C 19.640000 18.340000 9.020000 0 0.000000 0.000000 0.000000
H 19.570000 18.670000 7.990000 0 0.000000 0.000000 0.000000
H 20.500000 17.680000 9.110000 0 0.000000 0.000000 0.000000
H 18.760000 17.820000 9.390000 0 0.000000 0.000000 0.000000
22
Properties=species:S:1:pos:R:3:subsystem:I:1:forces:R:3 energy=9.64970397 step=5 pos_unit=Angstrom force_unit=kJ/mol/nm pbc="F F F"
C 23.890689 23.912051 10.330664 0 -4.825111 4.148161 -3.786581
H 23.531682 24.636328 9.602925 0 2.817080 -5.683301 5.710470
H 24.396598 24.504253 11.092390 0 -0.457568 -0.535616 -0.688941
H 24.601935 23.250705 9.823561 0 -0.357251 0.332187 0.254712
C 22.718677 23.190220 10.949152 0 3.534501 1.995645 -1.951188
O 22.211012 23.570586 11.989578 0 -0.414021 0.310205 0.848509
N 22.188698 22.180079 10.260065 0 -15.525158 -0.689089 14.806197
H 22.658289 21.928826 9.416494 0 7.399070 -3.958845 -13.291674
C 20.955007 21.537007 10.559725 1 29.194121 -7.347474 1.197739
H 21.047336 21.061893 11.531448 1 0.140456 -0.722772 1.478245
C 19.683980 22.438449 10.449349 1 -55.675553 -35.170698 13.072712
H 19.513161 22.764684 9.424282 1 -2.681410 5.121051 -16.090926
H 18.816799 21.879972 10.841101 1 33.165652 21.359143 -14.982712
H 19.840754 23.322678 11.055688 1 4.182583 23.590376 16.176533
C 20.759913 20.458765 9.479866 0 3.834617 1.495289 -5.819004
O 21.300201 20.520580 8.359234 0 -0.678712 -0.077652 1.407744
N 19.921069 19.502057 9.860602 0 -3.494563 -7.559523 -3.588607
H 19.614791 19.555221 10.816834 0 -0.934494 0.162212 2.917582
C 19.641681 18.338529 9.021751 0 -12.087635 5.320718 0.896242
H 19.569918 18.662501 7.988039 0 0.241780 -1.091517 3.482751
H 20.500404 17.682267 9.103743 0 6.195437 -4.734741 0.591548
H 18.752945 17.821810 9.387048 0 6.426180 3.736241 -2.641352
22
Properties=species:S:1:pos:R:3:subsystem:I:1:forces:R:3 energy=9.64976106 step=10 pos_unit=Angstrom force_unit=kJ/mol/nm pbc="F F F"
C 23.891374 23.914106 10.331324 0 -9.746463 8.305944 -7.469541
H 23.523393 24.642599 9.605907 0 5.744839 -11.373048 11.325042
H 24.393191 24.508502 11.094773 0 -0.920839 -1.090721 -1.400935
H 24.603867 23.251414 9.827124 0 -0.726550 0.675767 0.514148
C 22.717357 23.190441 10.948303 0 7.061821 3.998139 -3.883116
O 22.212024 23.571173 11.989157 0 -0.818563 0.616728 1.686024
N 22.187385 22.180158 10.260141 0 -30.886670 -1.690692 29.208874
H 22.656651 21.937614 9.422856 0 14.687250 -7.591230 -26.205670
C 20.950038 21.534008 10.559450 1 57.966878 -14.824622 2.551515
H 21.044673 21.063779 11.532910 1 0.274020 -1.361571 2.818702
C 19.687913 22.436868 10.448708 1 -109.632221 -68.485695 24.864716
H 19.526296 22.769418 9.428405 1 -4.913824 10.110899 -31.021502
H 18.813926 21.870156 10.842054 1 64.806541 42.021975 -29.166754
H 19.841549 23.315589 11.051535 1 8.070729 46.160556 31.667428
C 20.759830 20.457531 9.479727 0 7.683511 2.991831 -11.619486
O 21.300401 20.521159 8.358468 0 -1.353607 -0.159327 2.807667
N 19.922136 19.504108 9.861201 0 -6.990326 -15.108419 -6.964759
H 19.609572 19.560444 10.813697 0 -1.852011 0.333803 5.643745
C 19.643352 18.337063 9.023503 0 -24.064585 10.485361 1.794540
H 19.569839 18.654991 7.986113 0 0.495638 -2.143548 6.994314
H 20.500870 17.684487 9.097492 0 12.182202 -9.270725 1.051112
H 18.745955 17.823657 9.384070 0 12.932228 7.398595 -5.196065
22
Properties=species:S:1:pos:R:3:subsystem:I:1:forces:R:3 energy=9.64984472 step=15 pos_unit=Angstrom force_unit=kJ/mol/nm pbc="F F F"
C 23.892051 23.916168 10.331979 0 -14.703066 12.347993 -10.941107
H 23.515160 24.648757 9.609001 0 8.718148 -16.946061 16.723737
H 24.389775 24.512739 11.097142 0 -1.382147 -1.656638 -2.124807
H 24.605791 23.252130 9.830693 0 -1.105042 1.028092 0.776111
C 22.716043 23.190665 10.947451 0 10.572514 6.003452 -5.789271
O 22.213035 23.571760 11.988737 0 -1.211496 0.917867 2.507939
N 22.186050 22.180235 10.260238 0 -45.870040 -3.052221 42.913164
H 22.655158 21.946326 9.428958 0 21.702638 -10.821472 -38.457989
C 20.945117 21.530996 10.559178 1 86.137929 -22.368834 4.091000
H 21.042013 21.065652 11.534400 1 0.396280 -1.903150 3.988429
C 19.691755 22.435231 10.448089 1 -160.245701 -97.896909 34.790976
H 19.539383 22.774252 9.432222 1 -6.621378 14.732246 -44.144758
H 18.811693 21.860755 10.842719 1 93.510815 61.040822 -41.931354
H 19.842423 23.308957 11.047696 1 11.509415 66.743087 45.803467
C 20.759753 20.456300 9.479579 0 11.529078 4.477856 -17.382004
O 21.300600 20.521739 8.357704 0 -2.018797 -0.244262 4.187569
N 19.923198 19.506149 9.861796 0 -10.496079 -22.615059 -10.067329
H 19.604335 19.565670 10.810615 0 -2.729292 0.509473 8.121379
C 19.645003 18.335605 9.025256 0 -35.646109 15.434946 2.708475
H 19.569765 18.647461 7.984256 0 0.756140 -3.134162 10.462089
H 20.501456 17.686615 9.091251 0 17.821885 -13.504798 1.373279
H 18.739092 17.825577 9.381040 0 19.374304 10.907731 -7.608995
22
Properties=species:S:1:pos:R:3:subsystem:I:1:forces:R:3 energy=9.64994204 step=20 pos_unit=Angstrom force_unit=kJ/mol/nm pbc="F F F"
C 23.892716 23.918240 10.332624 0 -19.630304 16.150820 -14.100314
H 23.507014 24.654748 9.612261 0 11.668498 -22.281285 21.792889
H 24.386346 24.516960 11.099490 0 -1.833856 -2.224270 -2.848939
H 24.607705 23.252855 9.834269 0 -1.489835 1.386475 1.038431
C 22.714738 23.190895 10.946593 0 14.056680 8.006827 -7.663612
O 22.214046 23.572348 11.988318 0 -1.590782 1.211939 3.309732
N 22.184682 22.180311 10.260365 0 -60.265104 -4.807854 55.638861
H 22.653881 21.954932 9.434680 0 28.286752 -13.587496 -49.778394
C 20.940268 21.527966 10.558909 1 113.536716 -29.910655 5.837670
H 21.039357 21.067506 11.535929 1 0.503242 -2.338552 4.962016
C 19.695464 22.433513 10.447498 1 -206.029095 -121.514783 42.352833
H 19.552404 22.779232 9.435603 1 -7.759920 18.752640 -54.887610
H 18.810384 21.851958 10.842969 1 117.999498 77.533344 -52.724583
H 19.843412 23.302984 11.044310 1 14.371133 84.457515 57.972328
C 20.759685 20.455072 9.479416 0 15.353393 5.941320 -23.087456
O 21.300799 20.522318 8.356943 0 -2.668429 -0.331616 5.535326
N 19.924253 19.508173 9.862383 0 -14.020684 -30.047556 -12.841347
H 19.599071 19.570902 10.807614 0 -3.543135 0.683482 10.299128
C 19.646624 18.334160 9.027011 0 -46.553111 20.114830 3.650183
H 19.569698 18.639899 7.982503 0 1.017395 -4.043616 13.814380
H 20.502218 17.688609 9.085023 0 22.982945 -17.340758 1.558308
H 18.732422 17.827606 9.377935 0 25.608002 14.189249 -9.829829
22
Properties=species:S:1:pos:R:3:subsystem:I:1:forces:R:3 energy=9.65003814 step=25 pos_unit=Angstrom force_unit=kJ/mol/nm pbc="F F F"
C 23.893365 23.920326 10.333258 0 -24.461476 19.595702 -16.855211
H 23.498984 24.660518 9.615736 0 14.525704 -27.262497 26.427521
H 24.382898 24.521159 11.101809 0 -2.268491 -2.784251 -3.561457
H 24.609604 23.253595 9.837856 0 -1.877978 1.748169 1.298943
C 22.713445 23.191131 10.945730 0 17.503874 10.002646 -9.500619
O 22.215056 23.572936 11.987902 0 -1.954480 1.497284 4.086976
N 22.183271 22.180382 10.260532 0 -73.869829 -6.977089 67.126577
H 22.652883 21.963403 9.439909 0 34.287907 -15.842384 -59.916384
C 20.935514 21.524911 10.558645 1 140.002455 -37.374317 7.803979
H 21.036705 21.069337 11.537508 1 0.591572 -2.663319 5.722492
C 19.699002 22.431694 10.446942 1 -245.689461 -137.697221 47.159039
H 19.565349 22.784398 9.438441 1 -8.319691 21.955213 -62.777492
H 18.810242 21.843928 10.842699 1 137.182695 90.723524 -61.086246
H 19.844542 23.297846 11.041496 1 16.559145 98.548463 67.646813
C 20.759631 20.453849 9.479233 0 19.138294 7.370003 -28.717075
O 21.300995 20.522898 8.356185 0 -3.296708 -0.420477 6.838944
N 19.925297 19.510176 9.862961 0 -17.572516 -37.373993 -15.239106
H 19.593772 19.576140 10.804715 0 -4.270983 0.849799 12.132482
C 19.648206 18.332732 9.028770 0 -56.518782 24.475833 4.629933
H 19.569642 18.632297 7.980887 0 1.273214 -4.854731 16.981929
H 20.503208 17.690432 9.078811 0 27.543753 -20.691581 1.612064
H 18.726005 17.829775 9.374733 0 31.491782 17.175226 -11.814102
22
Properties=species:S:1:pos:R:3:subsystem:I:1:forces:R:3 energy=9.65011866 step=30 pos_unit=Angstrom force_unit=kJ/mol/nm pbc="F F F"
C 23.893993 23.922428 10.333878 0 -29.129439 22.571491 -19.124812
H 23.491097 24.666017 9.619474 0 17.219674 -31.780886 30.533500
H 24.379428 24.525330 11.104094 0 -2.678874 -3.327116 -4.250438
H 24.611484 23.254351 9.841455 0 -2.266428 2.110336 1.555475
C 22.712166 23.191376 10.944858 0 20.903041 11.984314 -11.295333
O 22.216064 23.573525 11.987488 0 -2.300751 1.772280 4.835360
N 22.181808 22.180449 10.260747 0 -86.494036 -9.563768 77.143485
H 22.652226 21.971717 9.444544 0 39.564520 -17.555422 -68.646776
C 20.930876 21.521825 10.558388 1 165.383738 -44.678565 9.992935
H 21.034060 21.071141 11.539143 1 0.658801 -2.877485 6.261830
C 19.702336 22.429761 10.446425 1 -278.175603 -145.128112 48.942096
H 19.578212 22.789780 9.440660 1 -8.326036 24.149413 -67.464906
H 18.811456 21.836794 10.841824 1 150.207592 99.977826 -66.666656
H 19.845836 23.293683 11.039352 1 18.008599 108.418164 74.409557
C 20.759592 20.452633 9.479027 0 22.865470 8.751623 -34.252429
O 21.301190 20.523477 8.355432 0 -3.897925 -0.509868 8.086611
N 19.926329 19.512153 9.863528 0 -21.158877 -44.562660 -17.221113
H 19.588431 19.581386 10.801936 0 -4.891524 1.002251 13.584715
C 19.649742 18.331324 9.030532 0 -65.295042 28.475264 5.655805
H 19.569597 18.624647 7.979439 0 1.517297 -5.553213 19.899393
H 20.504471 17.692050 9.072615 0 31.395435 -23.481448 1.545748
H 18.719900 17.832114 9.371413 0 36.890368 19.805580 -13.524050
22
Properties=species:S:1:pos:R:3:subsystem:I:1:forces:R:3 energy=9.65017213 step=35 pos_unit=Angstrom force_unit=kJ/mol/nm pbc="F F F"
C 23.894597 23.924548 10.334481 0 -33.568275 24.977260 -20.840780
H 23.483382 24.671202 9.623513 0 19.682196 -35.737481 34.029435
H 24.375931 24.529468 11.106336 0 -3.058245 -3.843467 -4.904116
H 24.613341 23.255129 9.845070 0 -2.652026 2.470025 1.805830
C 22.710904 23.191630 10.943977 0 24.242466 13.944185 -13.043386
O 22.217071 23.574116 11.987077 0 -2.627862 2.035341 5.550702
N 22.180283 22.180509 10.261016 0 -97.962982 -12.555641 85.488514
H 22.651960 21.979858 9.448500 0 43.988288 -18.712616 -75.774759
C 20.926375 21.518702 10.558138 1 189.537919 -51.737740 12.398085
H 21.031421 21.072917 11.540840 1 0.703483 -2.985385 6.581067
C 19.705439 22.427708 10.445949 1 -302.715861 -142.882132 47.569494
H 19.590992 22.795401 9.442212 1 -7.837860 25.181397 -68.740766
H 18.814155 21.830649 10.840291 1 156.496172 104.834807 -69.240606
H 19.847308 23.290591 11.037943 1 18.685921 113.652204 77.972811
C 20.759572 20.451424 9.478793 0 26.516546 10.073951 -39.675415
O 21.301382 20.524055 8.354684 0 -4.466482 -0.598748 9.266749
N 19.927345 19.514097 9.864083 0 -24.785427 -51.582301 -18.756841
H 19.583041 19.586643 10.799291 0 -5.385279 1.134689 14.627637
C 19.651223 18.329940 9.032299 0 -72.658622 32.077812 6.733479
H 19.569568 18.616942 7.978188 0 1.743436 -6.127890 22.506742
H 20.506045 17.693435 9.066434 0 34.444455 -25.647503 1.375421
H 18.714161 17.834649 9.367960 0 41.678038 22.029232 -14.929295
22
Properties=species:S:1:pos:R:3:subsystem:I:1:forces:R:3 energy=9.65019183 step=40 pos_unit=Angstrom force_unit=kJ/mol/nm pbc="F F F"
C 23.895172 23.926690 10.335068 0 -37.714962 26.724725 -21.948808
H 23.475861 24.676033 9.627890 0 21.848693 -39.045356 36.848272
H 24.372404 24.533568 11.108530 0 -3.400390 -4.324159 -5.511103
H 24.615173 23.255931 9.848703 0 -3.031463 2.824137 2.047772
C 22.709663 23.191896 10.943085 0 27.509755 15.873511 -14.741008
O 22.218076 23.574707 11.986669 0 -2.934192 2.284930 6.228962
N 22.178688 22.180560 10.261347 0 -108.120730 -15.924508 91.996870
H 22.652129 21.987813 9.451706 0 47.447166 -19.316624 -81.140310
C 20.922033 21.515536 10.557900 1 212.330425 -58.463110 15.003892
H 21.028789 21.074663 11.542602 1 0.725299 -2.995266 6.690022
C 19.708290 22.425537 10.445512 1 -318.845094 -130.473045 43.049608
H 19.603695 22.801271 9.443084 1 -6.943687 24.943677 -66.547629
H 18.818401 21.825539 10.838073 1 155.771025 105.026768 -68.716003
H 19.848965 23.288624 11.037305 1 18.587023 114.037504 78.192124
C 20.759575 20.450223 9.478525 0 30.073181 11.324926 -44.968241
O 21.301571 20.524633 8.353941 0 -4.996920 -0.686027 10.368069
N 19.928345 19.516005 9.864625 0 -28.455632 -58.402366 -19.825299
H 19.577598 19.591910 10.796791 0 -5.735163 1.241155 15.242153
C 19.652644 18.328582 9.034072 0 -78.416622 35.256277 7.866133
H 19.569557 18.609176 7.977160 0 1.945714 -6.570883 24.750532
H 20.507959 17.694567 9.060266 0 36.614867 -27.141309 1.121340
H 18.708835 17.837402 9.364359 0 45.741706 23.805044 -16.007347
